c numero: 33
c nombre: n-40-d-0.1
c densidad: 0.1
p edges 40 81
e 1 5
e 1 14
e 1 34
e 2 5
e 2 11
e 2 12
e 2 33
e 2 34
e 3 13
e 3 14
e 3 21
e 3 30
e 3 37
e 3 40
e 4 5
e 4 15
e 4 19
e 5 12
e 6 9
e 6 32
e 7 10
e 7 21
e 7 25
e 7 31
e 7 38
e 8 9
e 8 13
e 8 31
e 8 39
e 9 12
e 9 23
e 9 35
e 10 11
e 10 15
e 11 21
e 11 26
e 11 39
e 12 13
e 12 15
e 12 19
e 12 38
e 13 15
e 13 24
e 13 25
e 13 31
e 13 35
e 14 16
e 14 26
e 15 22
e 15 23
e 15 33
e 15 35
e 16 19
e 16 21
e 17 40
e 18 32
e 20 38
e 21 27
e 21 35
e 21 36
e 22 25
e 22 31
e 22 39
e 23 26
e 23 34
e 23 38
e 24 26
e 24 39
e 24 40
e 25 31
e 27 37
e 27 38
e 28 30
e 29 35
e 29 37
e 30 40
e 31 34
e 34 35
e 34 37
e 34 38
e 35 38
